p cnf 377 1228
c weights 1.0 1.0 2.718281828459045 0.36787944117144233 2.718281828459045 0.36787944117144233 2.718281828459045 0.36787944117144233 2.718281828459045 0.36787944117144233 2.718281828459045 0.36787944117144233 2.718281828459045 0.36787944117144233 2.718281828459045 0.36787944117144233 1.0 1.0 2.718281828459045 0.36787944117144233 2.718281828459045 0.36787944117144233 2.718281828459045 0.36787944117144233 2.718281828459045 0.36787944117144233 2.718281828459045 0.36787944117144233 2.718281828459045 0.36787944117144233 2.718281828459045 0.36787944117144233 2.718281828459045 0.36787944117144233 2.718281828459045 0.36787944117144233 2.718281828459045 0.36787944117144233 2.718281828459045 0.36787944117144233 1.0 1.0 2.718281828459045 0.36787944117144233 2.718281828459045 0.36787944117144233 2.718281828459045 0.36787944117144233 2.718281828459045 0.36787944117144233 2.718281828459045 0.36787944117144233 2.718281828459045 0.36787944117144233 2.718281828459045 0.36787944117144233 2.718281828459045 0.36787944117144233 2.718281828459045 0.36787944117144233 2.718281828459045 0.36787944117144233 2.718281828459045 0.36787944117144233 2.718281828459045 0.36787944117144233 1.0 1.0 2.718281828459045 0.36787944117144233 2.718281828459045 0.36787944117144233 2.718281828459045 0.36787944117144233 2.718281828459045 0.36787944117144233 2.718281828459045 0.36787944117144233 2.718281828459045 0.36787944117144233 2.718281828459045 0.36787944117144233 2.718281828459045 0.36787944117144233 2.718281828459045 0.36787944117144233 2.718281828459045 0.36787944117144233 2.718281828459045 0.36787944117144233 1.0 1.0 2.718281828459045 0.36787944117144233 2.718281828459045 0.36787944117144233 2.718281828459045 0.36787944117144233 2.718281828459045 0.36787944117144233 2.718281828459045 0.36787944117144233 2.718281828459045 0.36787944117144233 2.718281828459045 0.36787944117144233 2.718281828459045 0.36787944117144233 2.718281828459045 0.36787944117144233 1.0 1.0 2.718281828459045 0.36787944117144233 2.718281828459045 0.36787944117144233 2.718281828459045 0.36787944117144233 2.718281828459045 0.36787944117144233 2.718281828459045 0.36787944117144233 2.718281828459045 0.36787944117144233 2.718281828459045 0.36787944117144233 1.0 1.0 2.718281828459045 0.36787944117144233 2.718281828459045 0.36787944117144233 2.718281828459045 0.36787944117144233 2.718281828459045 0.36787944117144233 2.718281828459045 0.36787944117144233 2.718281828459045 0.36787944117144233 2.718281828459045 0.36787944117144233 2.718281828459045 0.36787944117144233 1.0 1.0 2.718281828459045 0.36787944117144233 2.718281828459045 0.36787944117144233 2.718281828459045 0.36787944117144233 2.718281828459045 0.36787944117144233 2.718281828459045 0.36787944117144233 2.718281828459045 0.36787944117144233 2.718281828459045 0.36787944117144233 2.718281828459045 0.36787944117144233 2.718281828459045 0.36787944117144233 2.718281828459045 0.36787944117144233 1.0 1.0 2.718281828459045 0.36787944117144233 2.718281828459045 0.36787944117144233 2.718281828459045 0.36787944117144233 2.718281828459045 0.36787944117144233 2.718281828459045 0.36787944117144233 2.718281828459045 0.36787944117144233 2.718281828459045 0.36787944117144233 2.718281828459045 0.36787944117144233 2.718281828459045 0.36787944117144233 2.718281828459045 0.36787944117144233 2.718281828459045 0.36787944117144233 2.718281828459045 0.36787944117144233 2.718281828459045 0.36787944117144233 2.718281828459045 0.36787944117144233 2.718281828459045 0.36787944117144233 1.0 1.0 2.718281828459045 0.36787944117144233 2.718281828459045 0.36787944117144233 2.718281828459045 0.36787944117144233 2.718281828459045 0.36787944117144233 2.718281828459045 0.36787944117144233 1.0 1.0 2.718281828459045 0.36787944117144233 2.718281828459045 0.36787944117144233 2.718281828459045 0.36787944117144233 2.718281828459045 0.36787944117144233 2.718281828459045 0.36787944117144233 2.718281828459045 0.36787944117144233 1.0 1.0 2.718281828459045 0.36787944117144233 2.718281828459045 0.36787944117144233 2.718281828459045 0.36787944117144233 2.718281828459045 0.36787944117144233 2.718281828459045 0.36787944117144233 2.718281828459045 0.36787944117144233 2.718281828459045 0.36787944117144233 2.718281828459045 0.36787944117144233 1.0 1.0 2.718281828459045 0.36787944117144233 2.718281828459045 0.36787944117144233 2.718281828459045 0.36787944117144233 2.718281828459045 0.36787944117144233 2.718281828459045 0.36787944117144233 2.718281828459045 0.36787944117144233 1.0 1.0 2.718281828459045 0.36787944117144233 2.718281828459045 0.36787944117144233 1.0 1.0 2.718281828459045 0.36787944117144233 2.718281828459045 0.36787944117144233 2.718281828459045 0.36787944117144233 2.718281828459045 0.36787944117144233 2.718281828459045 0.36787944117144233 2.718281828459045 0.36787944117144233 2.718281828459045 0.36787944117144233 2.718281828459045 0.36787944117144233 2.718281828459045 0.36787944117144233 2.718281828459045 0.36787944117144233 2.718281828459045 0.36787944117144233 2.718281828459045 0.36787944117144233 1.0 1.0 2.718281828459045 0.36787944117144233 2.718281828459045 0.36787944117144233 2.718281828459045 0.36787944117144233 2.718281828459045 0.36787944117144233 2.718281828459045 0.36787944117144233 2.718281828459045 0.36787944117144233 1.0 1.0 2.718281828459045 0.36787944117144233 2.718281828459045 0.36787944117144233 2.718281828459045 0.36787944117144233 2.718281828459045 0.36787944117144233 2.718281828459045 0.36787944117144233 2.718281828459045 0.36787944117144233 2.718281828459045 0.36787944117144233 2.718281828459045 0.36787944117144233 1.0 1.0 2.718281828459045 0.36787944117144233 2.718281828459045 0.36787944117144233 2.718281828459045 0.36787944117144233 2.718281828459045 0.36787944117144233 2.718281828459045 0.36787944117144233 2.718281828459045 0.36787944117144233 2.718281828459045 0.36787944117144233 2.718281828459045 0.36787944117144233 2.718281828459045 0.36787944117144233 2.718281828459045 0.36787944117144233 2.718281828459045 0.36787944117144233 1.0 1.0 2.718281828459045 0.36787944117144233 2.718281828459045 0.36787944117144233 2.718281828459045 0.36787944117144233 2.718281828459045 0.36787944117144233 1.0 1.0 2.718281828459045 0.36787944117144233 2.718281828459045 0.36787944117144233 2.718281828459045 0.36787944117144233 2.718281828459045 0.36787944117144233 1.0 1.0 2.718281828459045 0.36787944117144233 2.718281828459045 0.36787944117144233 2.718281828459045 0.36787944117144233 2.718281828459045 0.36787944117144233 2.718281828459045 0.36787944117144233 2.718281828459045 0.36787944117144233 1.0 1.0 2.718281828459045 0.36787944117144233 2.718281828459045 0.36787944117144233 2.718281828459045 0.36787944117144233 2.718281828459045 0.36787944117144233 1.0 1.0 2.718281828459045 0.36787944117144233 2.718281828459045 0.36787944117144233 2.718281828459045 0.36787944117144233 2.718281828459045 0.36787944117144233 2.718281828459045 0.36787944117144233 1.0 1.0 2.718281828459045 0.36787944117144233 2.718281828459045 0.36787944117144233 2.718281828459045 0.36787944117144233 1.0 1.0 2.718281828459045 0.36787944117144233 2.718281828459045 0.36787944117144233 2.718281828459045 0.36787944117144233 2.718281828459045 0.36787944117144233 2.718281828459045 0.36787944117144233 1.0 1.0 2.718281828459045 0.36787944117144233 2.718281828459045 0.36787944117144233 2.718281828459045 0.36787944117144233 2.718281828459045 0.36787944117144233 2.718281828459045 0.36787944117144233 1.0 1.0 2.718281828459045 0.36787944117144233 2.718281828459045 0.36787944117144233 2.718281828459045 0.36787944117144233 2.718281828459045 0.36787944117144233 2.718281828459045 0.36787944117144233 2.718281828459045 0.36787944117144233 2.718281828459045 0.36787944117144233 2.718281828459045 0.36787944117144233 1.0 1.0 2.718281828459045 0.36787944117144233 2.718281828459045 0.36787944117144233 1.0 1.0 2.718281828459045 0.36787944117144233 2.718281828459045 0.36787944117144233 2.718281828459045 0.36787944117144233 2.718281828459045 0.36787944117144233 2.718281828459045 0.36787944117144233 1.0 1.0 2.718281828459045 0.36787944117144233 2.718281828459045 0.36787944117144233 2.718281828459045 0.36787944117144233 1.0 1.0 2.718281828459045 0.36787944117144233 1.0 1.0 2.718281828459045 0.36787944117144233 2.718281828459045 0.36787944117144233 2.718281828459045 0.36787944117144233 2.718281828459045 0.36787944117144233 2.718281828459045 0.36787944117144233 2.718281828459045 0.36787944117144233 1.0 1.0 2.718281828459045 0.36787944117144233 2.718281828459045 0.36787944117144233 2.718281828459045 0.36787944117144233 2.718281828459045 0.36787944117144233 2.718281828459045 0.36787944117144233 2.718281828459045 0.36787944117144233 2.718281828459045 0.36787944117144233 1.0 1.0 2.718281828459045 0.36787944117144233 2.718281828459045 0.36787944117144233 2.718281828459045 0.36787944117144233 2.718281828459045 0.36787944117144233 2.718281828459045 0.36787944117144233 1.0 1.0 2.718281828459045 0.36787944117144233 2.718281828459045 0.36787944117144233 2.718281828459045 0.36787944117144233 2.718281828459045 0.36787944117144233 2.718281828459045 0.36787944117144233 2.718281828459045 0.36787944117144233 1.0 1.0 2.718281828459045 0.36787944117144233 2.718281828459045 0.36787944117144233 1.0 1.0 2.718281828459045 0.36787944117144233 2.718281828459045 0.36787944117144233 2.718281828459045 0.36787944117144233 2.718281828459045 0.36787944117144233 1.0 1.0 2.718281828459045 0.36787944117144233 2.718281828459045 0.36787944117144233 2.718281828459045 0.36787944117144233 2.718281828459045 0.36787944117144233 2.718281828459045 0.36787944117144233 2.718281828459045 0.36787944117144233 1.0 1.0 2.718281828459045 0.36787944117144233 2.718281828459045 0.36787944117144233 2.718281828459045 0.36787944117144233 1.0 1.0 2.718281828459045 0.36787944117144233 2.718281828459045 0.36787944117144233 2.718281828459045 0.36787944117144233 2.718281828459045 0.36787944117144233 2.718281828459045 0.36787944117144233 1.0 1.0 2.718281828459045 0.36787944117144233 1.0 1.0 2.718281828459045 0.36787944117144233 2.718281828459045 0.36787944117144233 2.718281828459045 0.36787944117144233 1.0 1.0 2.718281828459045 0.36787944117144233 2.718281828459045 0.36787944117144233 2.718281828459045 0.36787944117144233 2.718281828459045 0.36787944117144233 2.718281828459045 0.36787944117144233 1.0 1.0 2.718281828459045 0.36787944117144233 2.718281828459045 0.36787944117144233 2.718281828459045 0.36787944117144233 1.0 1.0 2.718281828459045 0.36787944117144233 2.718281828459045 0.36787944117144233 2.718281828459045 0.36787944117144233 2.718281828459045 0.36787944117144233 2.718281828459045 0.36787944117144233 1.0 1.0 2.718281828459045 0.36787944117144233 2.718281828459045 0.36787944117144233 2.718281828459045 0.36787944117144233 2.718281828459045 0.36787944117144233 1.0 1.0 2.718281828459045 0.36787944117144233 2.718281828459045 0.36787944117144233 2.718281828459045 0.36787944117144233 1.0 1.0 2.718281828459045 0.36787944117144233 2.718281828459045 0.36787944117144233 2.718281828459045 0.36787944117144233 2.718281828459045 0.36787944117144233 1.0 1.0 2.718281828459045 0.36787944117144233 2.718281828459045 0.36787944117144233 2.718281828459045 0.36787944117144233 1.0 1.0 2.718281828459045 0.36787944117144233 2.718281828459045 0.36787944117144233 1.0 1.0 1.0 1.0 2.718281828459045 0.36787944117144233 2.718281828459045 0.36787944117144233 1.0 1.0 2.718281828459045 0.36787944117144233 2.718281828459045 0.36787944117144233 2.718281828459045 0.36787944117144233 2.718281828459045 0.36787944117144233 1.0 1.0 2.718281828459045 0.36787944117144233 1.0 1.0 1.0 1.0 1.0 1.0 2.718281828459045 0.36787944117144233 2.718281828459045 0.36787944117144233 2.718281828459045 0.36787944117144233 1.0 1.0 2.718281828459045 0.36787944117144233 2.718281828459045 0.36787944117144233 1.0 1.0 2.718281828459045 0.36787944117144233 2.718281828459045 0.36787944117144233 1.0 1.0 2.718281828459045 0.36787944117144233 1.0 1.0 2.718281828459045 0.36787944117144233 1.0 1.0 2.718281828459045 0.36787944117144233 1.0 1.0 2.718281828459045 0.36787944117144233 1.0 1.0 1.0 1.0 2.718281828459045 0.36787944117144233 1.0 1.0 2.718281828459045 0.36787944117144233 1.0 1.0 1.0 1.0 1.0 1.0 2.718281828459045 0.36787944117144233 1.0 1.0
2 1 106 0
2 -1 -106 0
-2 1 -106 0
-2 -1 106 0
3 1 178 0
3 -1 -178 0
-3 1 -178 0
-3 -1 178 0
4 1 183 0
4 -1 -183 0
-4 1 -183 0
-4 -1 183 0
5 1 201 0
5 -1 -201 0
-5 1 -201 0
-5 -1 201 0
6 1 248 0
6 -1 -248 0
-6 1 -248 0
-6 -1 248 0
7 1 368 0
7 -1 -368 0
-7 1 -368 0
-7 -1 368 0
8 1 377 0
8 -1 -377 0
-8 1 -377 0
-8 -1 377 0
10 9 56 0
10 -9 -56 0
-10 9 -56 0
-10 -9 56 0
11 9 145 0
11 -9 -145 0
-11 9 -145 0
-11 -9 145 0
12 9 183 0
12 -9 -183 0
-12 9 -183 0
-12 -9 183 0
13 9 284 0
13 -9 -284 0
-13 9 -284 0
-13 -9 284 0
14 9 288 0
14 -9 -288 0
-14 9 -288 0
-14 -9 288 0
15 9 306 0
15 -9 -306 0
-15 9 -306 0
-15 -9 306 0
16 9 316 0
16 -9 -316 0
-16 9 -316 0
-16 -9 316 0
17 9 341 0
17 -9 -341 0
-17 9 -341 0
-17 -9 341 0
18 9 349 0
18 -9 -349 0
-18 9 -349 0
-18 -9 349 0
19 9 357 0
19 -9 -357 0
-19 9 -357 0
-19 -9 357 0
20 9 374 0
20 -9 -374 0
-20 9 -374 0
-20 -9 374 0
22 21 34 0
22 -21 -34 0
-22 21 -34 0
-22 -21 34 0
23 21 46 0
23 -21 -46 0
-23 21 -46 0
-23 -21 46 0
24 21 106 0
24 -21 -106 0
-24 21 -106 0
-24 -21 106 0
25 21 113 0
25 -21 -113 0
-25 21 -113 0
-25 -21 113 0
26 21 178 0
26 -21 -178 0
-26 21 -178 0
-26 -21 178 0
27 21 201 0
27 -21 -201 0
-27 21 -201 0
-27 -21 201 0
28 21 205 0
28 -21 -205 0
-28 21 -205 0
-28 -21 205 0
29 21 229 0
29 -21 -229 0
-29 21 -229 0
-29 -21 229 0
30 21 321 0
30 -21 -321 0
-30 21 -321 0
-30 -21 321 0
31 21 330 0
31 -21 -330 0
-31 21 -330 0
-31 -21 330 0
32 21 346 0
32 -21 -346 0
-32 21 -346 0
-32 -21 346 0
33 21 357 0
33 -21 -357 0
-33 21 -357 0
-33 -21 357 0
35 34 84 0
35 -34 -84 0
-35 34 -84 0
-35 -34 84 0
36 34 100 0
36 -34 -100 0
-36 34 -100 0
-36 -34 100 0
37 34 152 0
37 -34 -152 0
-37 34 -152 0
-37 -34 152 0
38 34 178 0
38 -34 -178 0
-38 34 -178 0
-38 -34 178 0
39 34 248 0
39 -34 -248 0
-39 34 -248 0
-39 -34 248 0
40 34 256 0
40 -34 -256 0
-40 34 -256 0
-40 -34 256 0
41 34 284 0
41 -34 -284 0
-41 34 -284 0
-41 -34 284 0
42 34 310 0
42 -34 -310 0
-42 34 -310 0
-42 -34 310 0
43 34 366 0
43 -34 -366 0
-43 34 -366 0
-43 -34 366 0
44 34 368 0
44 -34 -368 0
-44 34 -368 0
-44 -34 368 0
45 34 374 0
45 -34 -374 0
-45 34 -374 0
-45 -34 374 0
47 46 56 0
47 -46 -56 0
-47 46 -56 0
-47 -46 56 0
48 46 100 0
48 -46 -100 0
-48 46 -100 0
-48 -46 100 0
49 46 183 0
49 -46 -183 0
-49 46 -183 0
-49 -46 183 0
50 46 195 0
50 -46 -195 0
-50 46 -195 0
-50 -46 195 0
51 46 248 0
51 -46 -248 0
-51 46 -248 0
-51 -46 248 0
52 46 256 0
52 -46 -256 0
-52 46 -256 0
-52 -46 256 0
53 46 296 0
53 -46 -296 0
-53 46 -296 0
-53 -46 296 0
54 46 360 0
54 -46 -360 0
-54 46 -360 0
-54 -46 360 0
55 46 369 0
55 -46 -369 0
-55 46 -369 0
-55 -46 369 0
57 56 132 0
57 -56 -132 0
-57 56 -132 0
-57 -56 132 0
58 56 183 0
58 -56 -183 0
-58 56 -183 0
-58 -56 183 0
59 56 226 0
59 -56 -226 0
-59 56 -226 0
-59 -56 226 0
60 56 294 0
60 -56 -294 0
-60 56 -294 0
-60 -56 294 0
61 56 325 0
61 -56 -325 0
-61 56 -325 0
-61 -56 325 0
62 56 330 0
62 -56 -330 0
-62 56 -330 0
-62 -56 330 0
63 56 357 0
63 -56 -357 0
-63 56 -357 0
-63 -56 357 0
65 64 152 0
65 -64 -152 0
-65 64 -152 0
-65 -64 152 0
66 64 226 0
66 -64 -226 0
-66 64 -226 0
-66 -64 226 0
67 64 262 0
67 -64 -262 0
-67 64 -262 0
-67 -64 262 0
68 64 300 0
68 -64 -300 0
-68 64 -300 0
-68 -64 300 0
69 64 337 0
69 -64 -337 0
-69 64 -337 0
-69 -64 337 0
70 64 346 0
70 -64 -346 0
-70 64 -346 0
-70 -64 346 0
71 64 364 0
71 -64 -364 0
-71 64 -364 0
-71 -64 364 0
72 64 369 0
72 -64 -369 0
-72 64 -369 0
-72 -64 369 0
74 73 152 0
74 -73 -152 0
-74 73 -152 0
-74 -73 152 0
75 73 195 0
75 -73 -195 0
-75 73 -195 0
-75 -73 195 0
76 73 201 0
76 -73 -201 0
-76 73 -201 0
-76 -73 201 0
77 73 235 0
77 -73 -235 0
-77 73 -235 0
-77 -73 235 0
78 73 300 0
78 -73 -300 0
-78 73 -300 0
-78 -73 300 0
79 73 310 0
79 -73 -310 0
-79 73 -310 0
-79 -73 310 0
80 73 321 0
80 -73 -321 0
-80 73 -321 0
-80 -73 321 0
81 73 337 0
81 -73 -337 0
-81 73 -337 0
-81 -73 337 0
82 73 341 0
82 -73 -341 0
-82 73 -341 0
-82 -73 341 0
83 73 375 0
83 -73 -375 0
-83 73 -375 0
-83 -73 375 0
85 84 100 0
85 -84 -100 0
-85 84 -100 0
-85 -84 100 0
86 84 113 0
86 -84 -113 0
-86 84 -113 0
-86 -84 113 0
87 84 122 0
87 -84 -122 0
-87 84 -122 0
-87 -84 122 0
88 84 178 0
88 -84 -178 0
-88 84 -178 0
-88 -84 178 0
89 84 201 0
89 -84 -201 0
-89 84 -201 0
-89 -84 201 0
90 84 217 0
90 -84 -217 0
-90 84 -217 0
-90 -84 217 0
91 84 241 0
91 -84 -241 0
-91 84 -241 0
-91 -84 241 0
92 84 272 0
92 -84 -272 0
-92 84 -272 0
-92 -84 272 0
93 84 321 0
93 -84 -321 0
-93 84 -321 0
-93 -84 321 0
94 84 325 0
94 -84 -325 0
-94 84 -325 0
-94 -84 325 0
95 84 337 0
95 -84 -337 0
-95 84 -337 0
-95 -84 337 0
96 84 348 0
96 -84 -348 0
-96 84 -348 0
-96 -84 348 0
97 84 350 0
97 -84 -350 0
-97 84 -350 0
-97 -84 350 0
98 84 360 0
98 -84 -360 0
-98 84 -360 0
-98 -84 360 0
99 84 368 0
99 -84 -368 0
-99 84 -368 0
-99 -84 368 0
101 100 161 0
101 -100 -161 0
-101 100 -161 0
-101 -100 161 0
102 100 241 0
102 -100 -241 0
-102 100 -241 0
-102 -100 241 0
103 100 277 0
103 -100 -277 0
-103 100 -277 0
-103 -100 277 0
104 100 284 0
104 -100 -284 0
-104 100 -284 0
-104 -100 284 0
105 100 377 0
105 -100 -377 0
-105 100 -377 0
-105 -100 377 0
107 106 152 0
107 -106 -152 0
-107 106 -152 0
-107 -106 152 0
108 106 201 0
108 -106 -201 0
-108 106 -201 0
-108 -106 201 0
109 106 288 0
109 -106 -288 0
-109 106 -288 0
-109 -106 288 0
110 106 348 0
110 -106 -348 0
-110 106 -348 0
-110 -106 348 0
111 106 368 0
111 -106 -368 0
-111 106 -368 0
-111 -106 368 0
112 106 377 0
112 -106 -377 0
-112 106 -377 0
-112 -106 377 0
114 113 195 0
114 -113 -195 0
-114 113 -195 0
-114 -113 195 0
115 113 229 0
115 -113 -229 0
-115 113 -229 0
-115 -113 229 0
116 113 296 0
116 -113 -296 0
-116 113 -296 0
-116 -113 296 0
117 113 337 0
117 -113 -337 0
-117 113 -337 0
-117 -113 337 0
118 113 348 0
118 -113 -348 0
-118 113 -348 0
-118 -113 348 0
119 113 360 0
119 -113 -360 0
-119 113 -360 0
-119 -113 360 0
120 113 362 0
120 -113 -362 0
-120 113 -362 0
-120 -113 362 0
121 113 377 0
121 -113 -377 0
-121 113 -377 0
-121 -113 377 0
123 122 201 0
123 -122 -201 0
-123 122 -201 0
-123 -122 201 0
124 122 321 0
124 -122 -321 0
-124 122 -321 0
-124 -122 321 0
125 122 325 0
125 -122 -325 0
-125 122 -325 0
-125 -122 325 0
126 122 348 0
126 -122 -348 0
-126 122 -348 0
-126 -122 348 0
127 122 354 0
127 -122 -354 0
-127 122 -354 0
-127 -122 354 0
128 122 364 0
128 -122 -364 0
-128 122 -364 0
-128 -122 364 0
130 129 226 0
130 -129 -226 0
-130 129 -226 0
-130 -129 226 0
131 129 272 0
131 -129 -272 0
-131 129 -272 0
-131 -129 272 0
133 132 161 0
133 -132 -161 0
-133 132 -161 0
-133 -132 161 0
134 132 173 0
134 -132 -173 0
-134 132 -173 0
-134 -132 173 0
135 132 183 0
135 -132 -183 0
-135 132 -183 0
-135 -132 183 0
136 132 201 0
136 -132 -201 0
-136 132 -201 0
-136 -132 201 0
137 132 217 0
137 -132 -217 0
-137 132 -217 0
-137 -132 217 0
138 132 226 0
138 -132 -226 0
-138 132 -226 0
-138 -132 226 0
139 132 248 0
139 -132 -248 0
-139 132 -248 0
-139 -132 248 0
140 132 288 0
140 -132 -288 0
-140 132 -288 0
-140 -132 288 0
141 132 325 0
141 -132 -325 0
-141 132 -325 0
-141 -132 325 0
142 132 341 0
142 -132 -341 0
-142 132 -341 0
-142 -132 341 0
143 132 354 0
143 -132 -354 0
-143 132 -354 0
-143 -132 354 0
144 132 369 0
144 -132 -369 0
-144 132 -369 0
-144 -132 369 0
146 145 248 0
146 -145 -248 0
-146 145 -248 0
-146 -145 248 0
147 145 269 0
147 -145 -269 0
-147 145 -269 0
-147 -145 269 0
148 145 325 0
148 -145 -325 0
-148 145 -325 0
-148 -145 325 0
149 145 330 0
149 -145 -330 0
-149 145 -330 0
-149 -145 330 0
150 145 348 0
150 -145 -348 0
-150 145 -348 0
-150 -145 348 0
151 145 357 0
151 -145 -357 0
-151 145 -357 0
-151 -145 357 0
153 152 161 0
153 -152 -161 0
-153 152 -161 0
-153 -152 161 0
154 152 195 0
154 -152 -195 0
-154 152 -195 0
-154 -152 195 0
155 152 226 0
155 -152 -226 0
-155 152 -226 0
-155 -152 226 0
156 152 277 0
156 -152 -277 0
-156 152 -277 0
-156 -152 277 0
157 152 325 0
157 -152 -325 0
-157 152 -325 0
-157 -152 325 0
158 152 338 0
158 -152 -338 0
-158 152 -338 0
-158 -152 338 0
159 152 362 0
159 -152 -362 0
-159 152 -362 0
-159 -152 362 0
160 152 369 0
160 -152 -369 0
-160 152 -369 0
-160 -152 369 0
162 161 190 0
162 -161 -190 0
-162 161 -190 0
-162 -161 190 0
163 161 217 0
163 -161 -217 0
-163 161 -217 0
-163 -161 217 0
164 161 288 0
164 -161 -288 0
-164 161 -288 0
-164 -161 288 0
165 161 300 0
165 -161 -300 0
-165 161 -300 0
-165 -161 300 0
166 161 325 0
166 -161 -325 0
-166 161 -325 0
-166 -161 325 0
167 161 334 0
167 -161 -334 0
-167 161 -334 0
-167 -161 334 0
168 161 341 0
168 -161 -341 0
-168 161 -341 0
-168 -161 341 0
169 161 346 0
169 -161 -346 0
-169 161 -346 0
-169 -161 346 0
170 161 348 0
170 -161 -348 0
-170 161 -348 0
-170 -161 348 0
171 161 349 0
171 -161 -349 0
-171 161 -349 0
-171 -161 349 0
172 161 357 0
172 -161 -357 0
-172 161 -357 0
-172 -161 357 0
174 173 272 0
174 -173 -272 0
-174 173 -272 0
-174 -173 272 0
175 173 277 0
175 -173 -277 0
-175 173 -277 0
-175 -173 277 0
176 173 316 0
176 -173 -316 0
-176 173 -316 0
-176 -173 316 0
177 173 330 0
177 -173 -330 0
-177 173 -330 0
-177 -173 330 0
179 178 241 0
179 -178 -241 0
-179 178 -241 0
-179 -178 241 0
180 178 272 0
180 -178 -272 0
-180 178 -272 0
-180 -178 272 0
181 178 325 0
181 -178 -325 0
-181 178 -325 0
-181 -178 325 0
182 178 371 0
182 -178 -371 0
-182 178 -371 0
-182 -178 371 0
184 183 235 0
184 -183 -235 0
-184 183 -235 0
-184 -183 235 0
185 183 306 0
185 -183 -306 0
-185 183 -306 0
-185 -183 306 0
186 183 316 0
186 -183 -316 0
-186 183 -316 0
-186 -183 316 0
187 183 321 0
187 -183 -321 0
-187 183 -321 0
-187 -183 321 0
188 183 337 0
188 -183 -337 0
-188 183 -337 0
-188 -183 337 0
189 183 346 0
189 -183 -346 0
-189 183 -346 0
-189 -183 346 0
191 190 217 0
191 -190 -217 0
-191 190 -217 0
-191 -190 217 0
192 190 269 0
192 -190 -269 0
-192 190 -269 0
-192 -190 269 0
193 190 277 0
193 -190 -277 0
-193 190 -277 0
-193 -190 277 0
194 190 350 0
194 -190 -350 0
-194 190 -350 0
-194 -190 350 0
196 195 241 0
196 -195 -241 0
-196 195 -241 0
-196 -195 241 0
197 195 248 0
197 -195 -248 0
-197 195 -248 0
-197 -195 248 0
198 195 269 0
198 -195 -269 0
-198 195 -269 0
-198 -195 269 0
199 195 349 0
199 -195 -349 0
-199 195 -349 0
-199 -195 349 0
200 195 362 0
200 -195 -362 0
-200 195 -362 0
-200 -195 362 0
202 201 269 0
202 -201 -269 0
-202 201 -269 0
-202 -201 269 0
203 201 316 0
203 -201 -316 0
-203 201 -316 0
-203 -201 316 0
204 201 330 0
204 -201 -330 0
-204 201 -330 0
-204 -201 330 0
206 205 256 0
206 -205 -256 0
-206 205 -256 0
-206 -205 256 0
207 205 288 0
207 -205 -288 0
-207 205 -288 0
-207 -205 288 0
208 205 330 0
208 -205 -330 0
-208 205 -330 0
-208 -205 330 0
209 205 348 0
209 -205 -348 0
-209 205 -348 0
-209 -205 348 0
210 205 350 0
210 -205 -350 0
-210 205 -350 0
-210 -205 350 0
212 211 241 0
212 -211 -241 0
-212 211 -241 0
-212 -211 241 0
213 211 262 0
213 -211 -262 0
-213 211 -262 0
-213 -211 262 0
214 211 325 0
214 -211 -325 0
-214 211 -325 0
-214 -211 325 0
215 211 349 0
215 -211 -349 0
-215 211 -349 0
-215 -211 349 0
216 211 366 0
216 -211 -366 0
-216 211 -366 0
-216 -211 366 0
218 217 226 0
218 -217 -226 0
-218 217 -226 0
-218 -217 226 0
219 217 248 0
219 -217 -248 0
-219 217 -248 0
-219 -217 248 0
220 217 272 0
220 -217 -272 0
-220 217 -272 0
-220 -217 272 0
221 217 294 0
221 -217 -294 0
-221 217 -294 0
-221 -217 294 0
222 217 316 0
222 -217 -316 0
-222 217 -316 0
-222 -217 316 0
223 217 348 0
223 -217 -348 0
-223 217 -348 0
-223 -217 348 0
224 217 349 0
224 -217 -349 0
-224 217 -349 0
-224 -217 349 0
225 217 375 0
225 -217 -375 0
-225 217 -375 0
-225 -217 375 0
227 226 269 0
227 -226 -269 0
-227 226 -269 0
-227 -226 269 0
228 226 357 0
228 -226 -357 0
-228 226 -357 0
-228 -226 357 0
230 229 241 0
230 -229 -241 0
-230 229 -241 0
-230 -229 241 0
231 229 269 0
231 -229 -269 0
-231 229 -269 0
-231 -229 269 0
232 229 350 0
232 -229 -350 0
-232 229 -350 0
-232 -229 350 0
233 229 364 0
233 -229 -364 0
-233 229 -364 0
-233 -229 364 0
234 229 375 0
234 -229 -375 0
-234 229 -375 0
-234 -229 375 0
236 235 294 0
236 -235 -294 0
-236 235 -294 0
-236 -235 294 0
237 235 296 0
237 -235 -296 0
-237 235 -296 0
-237 -235 296 0
238 235 369 0
238 -235 -369 0
-238 235 -369 0
-238 -235 369 0
240 239 269 0
240 -239 -269 0
-240 239 -269 0
-240 -239 269 0
242 241 248 0
242 -241 -248 0
-242 241 -248 0
-242 -241 248 0
243 241 272 0
243 -241 -272 0
-243 241 -272 0
-243 -241 272 0
244 241 277 0
244 -241 -277 0
-244 241 -277 0
-244 -241 277 0
245 241 316 0
245 -241 -316 0
-245 241 -316 0
-245 -241 316 0
246 241 325 0
246 -241 -325 0
-246 241 -325 0
-246 -241 325 0
247 241 337 0
247 -241 -337 0
-247 241 -337 0
-247 -241 337 0
249 248 262 0
249 -248 -262 0
-249 248 -262 0
-249 -248 262 0
250 248 269 0
250 -248 -269 0
-250 248 -269 0
-250 -248 269 0
251 248 306 0
251 -248 -306 0
-251 248 -306 0
-251 -248 306 0
252 248 354 0
252 -248 -354 0
-252 248 -354 0
-252 -248 354 0
253 248 357 0
253 -248 -357 0
-253 248 -357 0
-253 -248 357 0
254 248 368 0
254 -248 -368 0
-254 248 -368 0
-254 -248 368 0
255 248 377 0
255 -248 -377 0
-255 248 -377 0
-255 -248 377 0
257 256 357 0
257 -256 -357 0
-257 256 -357 0
-257 -256 357 0
258 256 364 0
258 -256 -364 0
-258 256 -364 0
-258 -256 364 0
259 256 366 0
259 -256 -366 0
-259 256 -366 0
-259 -256 366 0
260 256 368 0
260 -256 -368 0
-260 256 -368 0
-260 -256 368 0
261 256 374 0
261 -256 -374 0
-261 256 -374 0
-261 -256 374 0
263 262 284 0
263 -262 -284 0
-263 262 -284 0
-263 -262 284 0
264 262 288 0
264 -262 -288 0
-264 262 -288 0
-264 -262 288 0
265 262 306 0
265 -262 -306 0
-265 262 -306 0
-265 -262 306 0
266 262 341 0
266 -262 -341 0
-266 262 -341 0
-266 -262 341 0
267 262 346 0
267 -262 -346 0
-267 262 -346 0
-267 -262 346 0
268 262 368 0
268 -262 -368 0
-268 262 -368 0
-268 -262 368 0
270 269 349 0
270 -269 -349 0
-270 269 -349 0
-270 -269 349 0
271 269 369 0
271 -269 -369 0
-271 269 -369 0
-271 -269 369 0
273 272 294 0
273 -272 -294 0
-273 272 -294 0
-273 -272 294 0
274 272 306 0
274 -272 -306 0
-274 272 -306 0
-274 -272 306 0
275 272 346 0
275 -272 -346 0
-275 272 -346 0
-275 -272 346 0
276 272 375 0
276 -272 -375 0
-276 272 -375 0
-276 -272 375 0
278 277 310 0
278 -277 -310 0
-278 277 -310 0
-278 -277 310 0
279 277 348 0
279 -277 -348 0
-279 277 -348 0
-279 -277 348 0
280 277 349 0
280 -277 -349 0
-280 277 -349 0
-280 -277 349 0
281 277 354 0
281 -277 -354 0
-281 277 -354 0
-281 -277 354 0
282 277 369 0
282 -277 -369 0
-282 277 -369 0
-282 -277 369 0
283 277 377 0
283 -277 -377 0
-283 277 -377 0
-283 -277 377 0
285 284 337 0
285 -284 -337 0
-285 284 -337 0
-285 -284 337 0
286 284 341 0
286 -284 -341 0
-286 284 -341 0
-286 -284 341 0
287 284 362 0
287 -284 -362 0
-287 284 -362 0
-287 -284 362 0
289 288 321 0
289 -288 -321 0
-289 288 -321 0
-289 -288 321 0
290 288 341 0
290 -288 -341 0
-290 288 -341 0
-290 -288 341 0
291 288 357 0
291 -288 -357 0
-291 288 -357 0
-291 -288 357 0
292 288 362 0
292 -288 -362 0
-292 288 -362 0
-292 -288 362 0
293 288 375 0
293 -288 -375 0
-293 288 -375 0
-293 -288 375 0
295 294 337 0
295 -294 -337 0
-295 294 -337 0
-295 -294 337 0
297 296 310 0
297 -296 -310 0
-297 296 -310 0
-297 -296 310 0
298 296 354 0
298 -296 -354 0
-298 296 -354 0
-298 -296 354 0
299 296 369 0
299 -296 -369 0
-299 296 -369 0
-299 -296 369 0
301 300 321 0
301 -300 -321 0
-301 300 -321 0
-301 -300 321 0
302 300 330 0
302 -300 -330 0
-302 300 -330 0
-302 -300 330 0
303 300 337 0
303 -300 -337 0
-303 300 -337 0
-303 -300 337 0
304 300 348 0
304 -300 -348 0
-304 300 -348 0
-304 -300 348 0
305 300 374 0
305 -300 -374 0
-305 300 -374 0
-305 -300 374 0
307 306 310 0
307 -306 -310 0
-307 306 -310 0
-307 -306 310 0
308 306 341 0
308 -306 -341 0
-308 306 -341 0
-308 -306 341 0
309 306 373 0
309 -306 -373 0
-309 306 -373 0
-309 -306 373 0
311 310 316 0
311 -310 -316 0
-311 310 -316 0
-311 -310 316 0
312 310 325 0
312 -310 -325 0
-312 310 -325 0
-312 -310 325 0
313 310 362 0
313 -310 -362 0
-313 310 -362 0
-313 -310 362 0
314 310 364 0
314 -310 -364 0
-314 310 -364 0
-314 -310 364 0
315 310 373 0
315 -310 -373 0
-315 310 -373 0
-315 -310 373 0
317 316 330 0
317 -316 -330 0
-317 316 -330 0
-317 -316 330 0
318 316 348 0
318 -316 -348 0
-318 316 -348 0
-318 -316 348 0
319 316 357 0
319 -316 -357 0
-319 316 -357 0
-319 -316 357 0
320 316 375 0
320 -316 -375 0
-320 316 -375 0
-320 -316 375 0
322 321 354 0
322 -321 -354 0
-322 321 -354 0
-322 -321 354 0
323 321 360 0
323 -321 -360 0
-323 321 -360 0
-323 -321 360 0
324 321 371 0
324 -321 -371 0
-324 321 -371 0
-324 -321 371 0
326 325 330 0
326 -325 -330 0
-326 325 -330 0
-326 -325 330 0
327 325 354 0
327 -325 -354 0
-327 325 -354 0
-327 -325 354 0
328 325 357 0
328 -325 -357 0
-328 325 -357 0
-328 -325 357 0
329 325 375 0
329 -325 -375 0
-329 325 -375 0
-329 -325 375 0
331 330 362 0
331 -330 -362 0
-331 330 -362 0
-331 -330 362 0
332 330 369 0
332 -330 -369 0
-332 330 -369 0
-332 -330 369 0
333 330 375 0
333 -330 -375 0
-333 330 -375 0
-333 -330 375 0
335 334 349 0
335 -334 -349 0
-335 334 -349 0
-335 -334 349 0
336 334 364 0
336 -334 -364 0
-336 334 -364 0
-336 -334 364 0
339 338 341 0
339 -338 -341 0
-339 338 -341 0
-339 -338 341 0
340 338 373 0
340 -338 -373 0
-340 338 -373 0
-340 -338 373 0
342 341 346 0
342 -341 -346 0
-342 341 -346 0
-342 -341 346 0
343 341 357 0
343 -341 -357 0
-343 341 -357 0
-343 -341 357 0
344 341 364 0
344 -341 -364 0
-344 341 -364 0
-344 -341 364 0
345 341 368 0
345 -341 -368 0
-345 341 -368 0
-345 -341 368 0
347 346 362 0
347 -346 -362 0
-347 346 -362 0
-347 -346 362 0
351 350 357 0
351 -350 -357 0
-351 350 -357 0
-351 -350 357 0
352 350 362 0
352 -350 -362 0
-352 350 -362 0
-352 -350 362 0
353 350 374 0
353 -350 -374 0
-353 350 -374 0
-353 -350 374 0
355 354 362 0
355 -354 -362 0
-355 354 -362 0
-355 -354 362 0
356 354 375 0
356 -354 -375 0
-356 354 -375 0
-356 -354 375 0
358 357 369 0
358 -357 -369 0
-358 357 -369 0
-358 -357 369 0
359 357 374 0
359 -357 -374 0
-359 357 -374 0
-359 -357 374 0
361 360 377 0
361 -360 -377 0
-361 360 -377 0
-361 -360 377 0
363 362 371 0
363 -362 -371 0
-363 362 -371 0
-363 -362 371 0
365 364 366 0
365 -364 -366 0
-365 364 -366 0
-365 -364 366 0
367 366 369 0
367 -366 -369 0
-367 366 -369 0
-367 -366 369 0
370 369 377 0
370 -369 -377 0
-370 369 -377 0
-370 -369 377 0
372 371 375 0
372 -371 -375 0
-372 371 -375 0
-372 -371 375 0
376 375 377 0
376 -375 -377 0
-376 375 -377 0
-376 -375 377 0
